p cnf 86 258
-86 -83 -80 -77 -40 -37 -34 0
-86 -83 -80 -46 -43 -40 -37 0
-86 -83 -49 -46 -43 -40 -3 0
-86 -52 -49 -46 -43 -6 -3 0
-85 -82 -79 -76 -39 -36 -33 0
-85 -82 -79 -45 -42 -39 -36 0
-85 -82 -48 -45 -42 -39 -2 0
-85 -51 -48 -45 -42 -5 -2 0
-84 -81 -78 -75 -38 -35 -32 0
-84 -81 -78 -44 -41 -38 -35 0
-84 -81 -47 -44 -41 -38 -1 0
-84 -50 -47 -44 -41 -4 -1 0
-83 -80 -77 -74 -37 -34 -31 0
-82 -79 -76 -73 -36 -33 -30 0
-81 -78 -75 -72 -35 -32 -29 0
-80 -77 -74 -71 -34 -31 -28 0
-79 -76 -73 -70 -33 -30 -27 0
-78 -75 -72 -69 -32 -29 -26 0
-77 -74 -71 -68 -31 -28 -25 0
-76 -73 -70 -67 -30 -27 -24 0
-75 -72 -69 -66 -29 -26 -23 0
-74 -71 -68 -65 -28 -25 -22 0
-73 -70 -67 -64 -27 -24 -21 0
-72 -69 -66 -63 -26 -23 -20 0
-71 -68 -65 -62 -25 -22 -19 0
-70 -67 -64 -61 -24 -21 -18 0
-69 -66 -63 -60 -23 -20 -17 0
-68 -65 -62 -59 -22 -19 -16 0
-67 -64 -61 -58 -21 -18 -15 0
-66 -63 -60 -57 -20 -17 -14 0
-65 -62 -59 -56 -19 -16 -13 0
-64 -61 -58 -55 -18 -15 -12 0
-63 -60 -57 -54 -17 -14 -11 0
-62 -59 -56 -53 -16 -13 -10 0
-61 -58 -55 -52 -15 -12 -9 0
-60 -57 -54 -51 -14 -11 -8 0
-59 -56 -53 -50 -13 -10 -7 0
-58 -55 -52 -49 -12 -9 -6 0
-57 -54 -51 -48 -11 -8 -5 0
-56 -53 -50 -47 -10 -7 -4 0
-55 -52 -49 -46 -9 -6 -3 0
-54 -51 -48 -45 -8 -5 -2 0
-53 -50 -47 -44 -7 -4 -1 0
1 14 0
1 20 0
1 25 0
1 31 0
1 44 47 0
2 15 0
2 21 0
2 26 0
2 32 0
2 45 48 0
3 16 0
3 22 0
3 27 0
3 33 0
3 46 49 0
4 17 0
4 23 0
4 28 0
4 34 0
4 47 50 0
5 18 0
5 24 0
5 29 0
5 35 0
5 48 51 0
6 19 0
6 25 0
6 30 0
6 36 0
6 49 52 0
7 20 0
7 26 0
7 31 0
7 37 0
7 50 53 0
8 21 0
8 27 0
8 32 0
8 38 0
8 51 54 0
9 22 0
9 28 0
9 33 0
9 39 0
9 52 55 0
10 23 0
10 29 0
10 34 0
10 40 0
10 53 56 0
11 24 0
11 30 0
11 35 0
11 41 0
11 54 57 0
12 25 0
12 31 0
12 36 0
12 42 0
12 55 58 0
13 26 0
13 32 0
13 37 0
13 43 0
13 56 59 0
14 27 0
14 33 0
14 38 0
14 57 60 0
15 28 0
15 34 0
15 39 0
15 58 61 0
16 29 0
16 35 0
16 40 0
16 59 62 0
17 30 0
17 36 0
17 41 0
17 60 63 0
18 31 0
18 37 0
18 42 0
18 61 64 0
19 32 0
19 38 0
19 43 0
19 62 65 0
20 33 0
20 39 0
20 63 66 0
21 34 0
21 40 0
21 64 67 0
22 35 0
22 41 0
22 65 68 0
23 36 0
23 42 0
23 66 69 0
24 37 0
24 43 0
24 67 70 0
25 38 0
25 68 71 0
26 39 0
26 69 72 0
27 40 0
27 70 73 0
28 41 0
28 71 74 0
29 42 0
29 72 75 0
30 43 0
30 73 76 0
31 74 77 0
32 75 78 0
33 76 79 0
34 77 80 0
35 78 81 0
36 79 82 0
37 80 83 0
38 81 84 0
39 82 85 0
40 83 86 0
41 44 84 0
42 45 85 0
43 46 86 0
44 0
44 60 0
44 71 0
45 0
45 61 0
45 72 0
46 0
46 62 0
46 73 0
47 0
47 63 0
47 74 0
48 0
48 64 0
48 75 0
49 0
49 65 0
49 76 0
50 0
50 66 0
50 77 0
51 0
51 67 0
51 78 0
52 0
52 68 0
52 79 0
53 0
53 69 0
53 80 0
54 0
54 70 0
54 81 0
55 0
55 71 0
55 82 0
56 0
56 72 0
56 83 0
57 0
57 73 0
57 84 0
58 0
58 74 0
58 85 0
59 0
59 75 0
59 86 0
60 0
60 76 0
61 0
61 77 0
62 0
62 78 0
63 0
63 79 0
64 0
64 80 0
65 0
65 81 0
66 0
66 82 0
67 0
67 83 0
68 0
68 84 0
69 0
69 85 0
70 0
70 86 0
71 0
72 0
73 0
74 0
75 0
76 0
77 0
78 0
79 0
80 0
81 0
82 0
83 0
84 0
85 0
86 0
